NAME: ACTUAL_TOURS/amz0017
TYPE: TOUR
COMMENT: RouteID_0197276c-44c1-486b-842a-a4543ee3b3ca
DIMENSION: 112
TOUR_SECTION
87
109
17
64
107
44
59
53
65
90
30
73
9
88
41
94
22
62
28
4
25
76
12
105
85
29
92
102
51
10
7
89
80
8
97
84
33
46
91
49
3
55
104
77
61
50
66
20
86
52
16
15
75
93
38
35
24
112
36
63
48
39
11
74
108
57
68
96
70
72
19
60
13
27
23
31
5
2
18
47
106
32
110
1
40
78
83
111
43
34
26
21
58
101
69
100
103
6
67
37
14
98
99
42
81
71
82
79
56
54
45
95
-1
EOF
